c 159_4_checker.cnf
c
c field = 159
c formula set type = 4_checker
c
p cnf 5 74
308 
310 
312 
314 
-306 
309 
311 
313 
315 
-307 
308 
310 
312 
314 
-318 
309 
311 
313 
315 
-319 
310 
312 
314 
318 
-308 
311 
313 
315 
319 
-309 
310 
312 
314 
318 
-320 
311 
313 
315 
319 
-321 
312 
314 
318 
320 
-310 
313 
315 
319 
321 
-311 
312 
314 
318 
320 
-322 
313 
315 
319 
321 
-323 
314 
318 
320 
322 
-312 
315 
319 
321 
323 
-313 
314 
318 
320 
322 
-324 
315 
319 
321 
323 
-325 
318 
320 
322 
324 
-314 
319 
321 
323 
325 
-315 
318 
320 
322 
324 
-326 
319 
321 
323 
325 
-327 
196 
226 
256 
286 
-166 
197 
227 
257 
287 
-167 
196 
226 
256 
286 
-346 
197 
227 
257 
287 
-347 
226 
256 
286 
346 
-196 
227 
257 
287 
347 
-197 
226 
256 
286 
346 
-376 
227 
257 
287 
347 
-377 
256 
286 
346 
376 
-226 
257 
287 
347 
377 
-227 
256 
286 
346 
376 
-406 
257 
287 
347 
377 
-407 
286 
346 
376 
406 
-256 
287 
347 
377 
407 
-257 
286 
346 
376 
406 
-436 
287 
347 
377 
407 
-437 
346 
376 
406 
436 
-286 
347 
377 
407 
437 
-287 
188 
220 
252 
284 
-156 
189 
221 
253 
285 
-157 
188 
220 
252 
284 
-348 
189 
221 
253 
285 
-349 
220 
252 
284 
348 
-188 
221 
253 
285 
349 
-189 
220 
252 
284 
348 
-380 
221 
253 
285 
349 
-381 
252 
284 
348 
380 
-220 
253 
285 
349 
381 
-221 
252 
284 
348 
380 
-412 
253 
285 
349 
381 
-413 
284 
348 
380 
412 
-252 
285 
349 
381 
413 
-253 
284 
348 
380 
412 
-444 
285 
349 
381 
413 
-445 
348 
380 
412 
444 
-284 
349 
381 
413 
445 
-285 
204 
232 
260 
288 
-176 
205 
233 
261 
289 
-177 
204 
232 
260 
288 
-344 
205 
233 
261 
289 
-345 
232 
260 
288 
344 
-204 
233 
261 
289 
345 
-205 
232 
260 
288 
344 
-372 
233 
261 
289 
345 
-373 
260 
288 
344 
372 
-232 
261 
289 
345 
373 
-233 
260 
288 
344 
372 
-400 
261 
289 
345 
373 
-401 
288 
344 
372 
400 
-260 
289 
345 
373 
401 
-261 
288 
344 
372 
400 
-428 
289 
345 
373 
401 
-429 
344 
372 
400 
428 
-288 
345 
373 
401 
429 
-289 
